
  32    4
  10   10   10   10

   0   0   0   0   0   4 2 29 30 31 
   7   0   1   1   1   1 3 
   8   1   3   0   6   2 28 4 
   5   8   0   1   5   1 5 
  10   3   4   5   0   2 27 6 
   8   3   0   3   6   1 7 
   3   3   3   6   0   2 26 8 
   2   5   1   5   0   1 9 
   9   0   6   3   1   3 25 24 10 
   7   0   6   3   4   1 11 
   8   1   7   8   0   1 12 
   5   0   2   4   4   2 23 13 
  10   7   6   0   4   1 14 
   2   0   2   5   8   1 15 
   7   3   3   3   0   1 16 
  10   6   7   0   2   1 17 
   3   4   0   4   6   1 18 
   7   3   2   4   0   1 19 
   6   3   6   0   3   1 20 
   1   4   0   5   3   1 21 
   8   0   4   4   4   1 22 
   5   5   0   3   3   1 32
   2   3   0   3   5   1 32
   9   0   4   2   5   1 32
   5   6   5   0   4   1 32
   2   3   7   0   4   1 32
   2   0   3   5   4   1 32
   5   0   3   2   5   1 32
   6   6   3   0   2   1 32
   3   0   4   9   5   1 32
   8   3   0   4   2   1 32
   0   0   0   0   0   0 
